TCS_Benchmarks/redos_fix/snort1_output_distinct_286_285_32_0.smt2
(set-logic QF_S)
(declare-const x String)
(assert (str.in.re x (re.inter  (re.++ (re.* (re.comp  (re.union  (str.to_re "\u{0A}")  (str.to_re "\u{0D}"))) ) (re.+ (re.range "\u{30}" "\u{39}") ))  (re.++ (re.* (re.comp  (re.union  (str.to_re "\u{0A}")  (str.to_re "\u{0D}"))) ) (re.++  (re.++  (re.union  (str.to.re "\u{71}")  (str.to.re "\u{51}")) (re.++ (re.* (re.comp  (re.union  (str.to_re "\u{0A}")  (str.to_re "\u{0D}"))) ) (re.++  (re.union  (str.to.re "\u{64}")  (str.to.re "\u{44}")) (re.++ (re.+ (re.range "\u{30}" "\u{39}") ) (re.++  (re.union  (str.to.re "\u{6c}")  (str.to.re "\u{4c}")) (re.++ (re.+ (re.range "\u{30}" "\u{39}") )  (re.union  (str.to.re "\u{74}")  (str.to.re "\u{54}")))))))) (re.+ (re.range "\u{30}" "\u{39}") ))) )))
(check-sat)
(get-model)