TCS_Benchmarks/redos_fix/snort1_output_distinct_286_285_32_0.txt
([^\n\r]*)(\d+)
([^\n\r]*)([qQ][^\n\r]*[dD]\d+[lL]\d+[tT])(\d+)